c file = bg_ex3_4_7.cnf 
c expanded from the example 3.1 in
c Pauli Miettinen: Matrix Decomposition Methods for Data Mining: 
c                  Computational Complexity and Algorithms ;  2009
c
p cnf 4 7
  1  2        0             
        3  4  0
 -1           0 
    -2        0               
    -2 -3     0
       -3     0           
          -4  0                     